SDVRP instances/custom_instances/p10_17_split0.vrp
NAME:p10_17_split
BEST_KNOWN: 0
COMMENT: 0
DIMENSION: 956
CAPACITY: 200
EDGE_WEIGHT_FORMAT: FUNCTION
EDGE_WEIGHT_TYPE: EXACT_2D
NODE_COORD_SECTION
1 0.00000 0.00000
2 24 -48
3 24 -48
4 24 -48
5 -20 -30
6 -20 -30
7 -20 -30
8 -20 -30
9 -20 -30
10 -7 -1
11 -7 -1
12 -7 -1
13 -7 -1
14 -7 -1
15 -7 -1
16 -7 -1
17 26 -35
18 26 -35
19 26 -35
20 26 -35
21 26 -35
22 26 -35
23 11 28
24 11 28
25 11 28
26 11 28
27 11 28
28 11 28
29 -33 -6
30 -33 -6
31 -33 -6
32 -23 27
33 -23 27
34 -23 27
35 -23 27
36 -23 27
37 -23 27
38 -23 27
39 29 39
40 29 39
41 29 39
42 29 39
43 29 39
44 29 39
45 19 44
46 19 44
47 19 44
48 19 44
49 19 44
50 19 44
51 14 19
52 14 19
53 14 19
54 -4 38
55 -4 38
56 -4 38
57 -4 38
58 -4 38
59 -28 45
60 -28 45
61 -28 45
62 -28 45
63 -28 45
64 -28 45
65 30 22
66 30 22
67 30 22
68 30 22
69 -49 3
70 -49 3
71 -49 3
72 -49 3
73 -49 3
74 -49 3
75 -13 -9
76 -13 -9
77 -13 -9
78 -13 -9
79 9 6
80 9 6
81 9 6
82 9 6
83 9 6
84 9 6
85 44 -45
86 44 -45
87 44 -45
88 44 -45
89 5 43
90 5 43
91 5 43
92 5 43
93 20 9
94 20 9
95 20 9
96 20 9
97 27 22
98 27 22
99 27 22
100 22 6
101 22 6
102 22 6
103 22 6
104 22 6
105 22 6
106 -19 1
107 -19 1
108 18 16
109 18 16
110 18 16
111 18 16
112 4 7
113 4 7
114 4 7
115 -21 -20
116 -21 -20
117 -21 -20
118 35 19
119 35 19
120 35 19
121 35 19
122 35 19
123 50 -16
124 50 -16
125 50 -16
126 50 -16
127 50 -16
128 49 10
129 49 10
130 49 10
131 49 10
132 49 10
133 -32 -33
134 -32 -33
135 -32 -33
136 -32 -33
137 -32 -33
138 -32 -33
139 -50 43
140 -50 43
141 -50 43
142 -50 43
143 47 18
144 47 18
145 47 18
146 47 18
147 -2 5
148 -2 5
149 -2 5
150 -2 5
151 -2 5
152 -2 5
153 46 -14
154 46 -14
155 46 -14
156 46 -14
157 -31 1
158 -31 1
159 -31 1
160 -48 13
161 -48 13
162 -48 13
163 -48 13
164 -48 13
165 -48 13
166 27 9
167 27 9
168 27 9
169 27 9
170 27 9
171 27 9
172 -37 -46
173 -37 -46
174 -37 -46
175 -37 -46
176 -37 -46
177 -12 34
178 -12 34
179 -12 34
180 -12 34
181 27 -20
182 27 -20
183 27 -20
184 27 -20
185 -3 -25
186 -3 -25
187 -3 -25
188 -3 -25
189 10 -1
190 10 -1
191 10 -1
192 10 -1
193 10 -1
194 34 18
195 34 18
196 34 18
197 34 18
198 34 18
199 -9 -37
200 -9 -37
201 -9 -37
202 -9 -37
203 -9 -37
204 -9 -37
205 0 -15
206 0 -15
207 0 -15
208 0 -15
209 0 -15
210 0 -15
211 0 -15
212 -6 -13
213 -6 -13
214 -6 -13
215 -6 -13
216 -32 -45
217 -32 -45
218 -32 -45
219 8 47
220 8 47
221 8 47
222 8 47
223 8 47
224 -25 -27
225 -25 -27
226 -25 -27
227 -25 -27
228 -25 -27
229 -25 -27
230 -20 47
231 -20 47
232 -20 47
233 -20 47
234 -12 -29
235 -12 -29
236 -12 -29
237 -45 -43
238 -45 -43
239 -45 -43
240 -13 -28
241 -13 -28
242 -13 -28
243 -13 -28
244 -13 -28
245 -13 -28
246 -13 -28
247 -13 -28
248 27 -13
249 27 -13
250 27 -13
251 27 -13
252 27 -13
253 27 -13
254 27 -13
255 45 -49
256 45 -49
257 45 -49
258 45 -49
259 45 -49
260 34 -31
261 34 -31
262 34 -31
263 34 -31
264 34 -31
265 34 -31
266 12 27
267 12 27
268 12 27
269 12 27
270 49 -14
271 49 -14
272 49 -14
273 49 -14
274 49 -14
275 49 -14
276 49 -14
277 31 -40
278 31 -40
279 31 -40
280 -50 36
281 -50 36
282 -50 36
283 -9 40
284 -9 40
285 -9 40
286 -39 -23
287 -39 -23
288 -6 -31
289 -6 -31
290 -6 -31
291 -6 -31
292 21 20
293 21 20
294 21 20
295 21 20
296 21 20
297 21 20
298 21 20
299 -16 -17
300 -16 -17
301 -16 -17
302 -16 -17
303 -16 -17
304 -16 -17
305 4 -12
306 4 -12
307 4 -12
308 4 -12
309 4 -12
310 4 -12
311 4 -12
312 17 -6
313 17 -6
314 17 -6
315 17 -6
316 17 -6
317 -46 35
318 -46 35
319 -46 35
320 -46 35
321 -46 35
322 20 -39
323 20 -39
324 20 -39
325 20 -39
326 20 -39
327 20 -39
328 20 -39
329 33 -8
330 -9 16
331 -9 16
332 -9 16
333 -9 16
334 -9 16
335 -9 16
336 -9 16
337 -6 24
338 -6 24
339 -6 24
340 -6 24
341 -6 24
342 -6 24
343 -6 24
344 -50 -50
345 -50 -50
346 -50 -50
347 43 32
348 43 32
349 43 32
350 43 32
351 -34 -42
352 -34 -42
353 -34 -42
354 -34 -42
355 -34 -42
356 -34 -42
357 -22 28
358 -22 28
359 -22 28
360 -22 28
361 -40 -35
362 -40 -35
363 -40 -35
364 -40 -35
365 -40 -35
366 11 -37
367 11 -37
368 11 -37
369 11 -37
370 11 -37
371 -31 42
372 -31 42
373 -31 42
374 -31 42
375 29 -45
376 29 -45
377 29 -45
378 29 -45
379 29 -45
380 29 -45
381 29 -45
382 14 45
383 14 45
384 14 45
385 14 45
386 14 45
387 -48 28
388 -48 28
389 -48 28
390 -48 28
391 -48 28
392 -48 28
393 -48 28
394 40 41
395 40 41
396 40 41
397 40 41
398 40 41
399 27 -20
400 27 -20
401 27 -20
402 27 -20
403 27 -20
404 27 -20
405 -38 4
406 -38 4
407 -38 4
408 -44 -47
409 -44 -47
410 -44 -47
411 -44 -47
412 -44 -47
413 -45 -34
414 -45 -34
415 -45 -34
416 -45 -34
417 -45 -34
418 3 -27
419 3 -27
420 3 -27
421 3 -27
422 3 -27
423 -32 45
424 -32 45
425 -32 45
426 -32 45
427 -32 45
428 -32 45
429 16 18
430 16 18
431 16 18
432 16 18
433 16 18
434 -24 45
435 -24 45
436 -24 45
437 -24 45
438 -24 45
439 -24 45
440 -1 30
441 -1 30
442 -1 30
443 14 -47
444 14 -47
445 14 -47
446 14 -47
447 -36 29
448 -36 29
449 -36 29
450 -36 29
451 -36 29
452 -36 29
453 13 -43
454 13 -43
455 13 -43
456 13 -43
457 -31 43
458 -31 43
459 -31 43
460 -31 43
461 19 -19
462 19 -19
463 19 -19
464 19 -19
465 19 -19
466 19 -19
467 -34 -26
468 -34 -26
469 -34 -26
470 -34 -26
471 -34 -26
472 -34 -26
473 17 8
474 17 8
475 17 8
476 25 20
477 25 20
478 25 20
479 25 20
480 25 20
481 25 20
482 25 20
483 50 -6
484 50 -6
485 50 -6
486 43 -15
487 43 -15
488 43 -15
489 43 -15
490 20 -22
491 20 -22
492 20 -22
493 20 -22
494 20 -22
495 -19 24
496 -19 24
497 -19 24
498 -19 24
499 -19 24
500 -19 24
501 -19 24
502 -19 24
503 -15 46
504 -15 46
505 -15 46
506 -15 46
507 5 0
508 5 0
509 5 0
510 5 0
511 5 0
512 5 0
513 43 -21
514 43 -21
515 38 -18
516 38 -18
517 38 -18
518 38 -18
519 43 -47
520 43 -47
521 -8 -15
522 -8 -15
523 -8 -15
524 -8 -15
525 -7 0
526 -7 0
527 -7 0
528 -7 0
529 -7 0
530 -7 0
531 38 -45
532 38 -45
533 38 -45
534 38 -45
535 38 -45
536 -11 14
537 -11 14
538 -11 14
539 -11 14
540 -11 14
541 -11 14
542 -11 14
543 -47 1
544 -47 1
545 -47 1
546 -47 1
547 -47 1
548 46 -27
549 46 -27
550 46 -27
551 46 -27
552 46 -27
553 0 -24
554 0 -24
555 0 -24
556 -17 -15
557 -17 -15
558 -17 -15
559 -17 -15
560 -34 6
561 -34 6
562 -34 6
563 -34 6
564 -20 3
565 -20 3
566 -20 3
567 -20 3
568 -20 3
569 47 -32
570 47 -32
571 47 -32
572 47 -32
573 47 -32
574 47 -32
575 -50 28
576 -50 28
577 -50 28
578 -50 28
579 -50 28
580 -50 28
581 26 -27
582 26 -27
583 26 -27
584 26 -27
585 26 -27
586 -50 -38
587 -50 -38
588 -50 -38
589 -50 -38
590 3 26
591 3 26
592 3 26
593 3 26
594 3 26
595 34 47
596 34 47
597 34 47
598 34 47
599 37 -2
600 37 -2
601 37 -2
602 37 -2
603 37 -2
604 37 -2
605 -22 -42
606 -22 -42
607 -22 -42
608 -22 -42
609 -22 -42
610 -22 -42
611 39 -14
612 39 -14
613 39 -14
614 39 -14
615 39 -14
616 36 20
617 36 20
618 36 20
619 36 20
620 36 20
621 36 20
622 36 20
623 -33 46
624 -33 46
625 -33 46
626 -33 46
627 47 -15
628 47 -15
629 47 -15
630 47 -15
631 47 -15
632 3 -16
633 3 -16
634 3 -16
635 3 -16
636 3 -16
637 19 -25
638 19 -25
639 19 -25
640 19 -25
641 19 -25
642 19 -25
643 34 -26
644 34 -26
645 34 -26
646 34 -26
647 34 -26
648 34 -26
649 -50 24
650 -50 24
651 -50 24
652 -50 24
653 -49 -9
654 -49 -9
655 -49 -9
656 -29 -26
657 -29 -26
658 -29 -26
659 -29 -26
660 -29 -26
661 -29 -26
662 -29 -26
663 -48 40
664 -48 40
665 -48 40
666 -48 40
667 3 36
668 3 36
669 38 7
670 38 7
671 -44 19
672 -44 19
673 7 41
674 7 41
675 7 41
676 42 14
677 42 14
678 42 14
679 13 17
680 13 17
681 13 17
682 13 17
683 13 17
684 -45 25
685 -45 25
686 -45 25
687 -45 25
688 -45 25
689 -45 25
690 -8 -42
691 -8 -42
692 -8 -42
693 -8 -42
694 -8 -42
695 40 -22
696 40 -22
697 40 -22
698 40 -22
699 11 17
700 11 17
701 11 17
702 11 17
703 11 17
704 29 -50
705 29 -50
706 29 -50
707 10 50
708 10 50
709 10 50
710 10 50
711 10 50
712 37 -46
713 37 -46
714 37 -46
715 37 -46
716 37 -46
717 37 -46
718 -39 31
719 -39 31
720 -39 31
721 -39 31
722 20 -21
723 20 -21
724 20 -21
725 20 -21
726 20 -21
727 20 -21
728 -45 -8
729 -45 -8
730 -45 -8
731 -45 -8
732 -45 -8
733 -26 -47
734 -26 -47
735 31 8
736 31 8
737 31 8
738 31 8
739 19 13
740 19 13
741 19 13
742 -37 5
743 -37 5
744 -37 5
745 -37 5
746 -18 4
747 -18 4
748 -18 4
749 -18 4
750 -18 4
751 47 32
752 47 32
753 47 32
754 47 32
755 47 32
756 47 32
757 5 -39
758 5 -39
759 5 -39
760 5 -39
761 5 -39
762 -20 -19
763 -20 -19
764 -20 -19
765 -20 -19
766 -29 6
767 -29 6
768 -29 6
769 -29 6
770 -29 6
771 -29 6
772 38 10
773 38 10
774 38 10
775 38 10
776 38 10
777 38 10
778 -46 -6
779 -46 -6
780 -46 -6
781 -46 -6
782 -46 -6
783 27 20
784 27 20
785 27 20
786 27 20
787 27 20
788 -14 -7
789 -14 -7
790 -14 -7
791 -14 -7
792 -14 -7
793 -14 -7
794 -11 -19
795 -11 -19
796 -11 -19
797 -11 -19
798 -11 -19
799 -11 -19
800 -20 -38
801 -20 -38
802 -20 -38
803 -20 -38
804 18 19
805 18 19
806 18 19
807 18 19
808 18 19
809 29 -16
810 29 -16
811 29 -16
812 29 -16
813 29 -16
814 29 -16
815 29 -16
816 29 -16
817 24 45
818 24 45
819 24 45
820 24 45
821 24 45
822 24 45
823 43 -21
824 43 -21
825 43 -21
826 43 -21
827 43 -21
828 43 -21
829 43 -21
830 4 -17
831 4 -17
832 4 -17
833 4 -17
834 4 -17
835 4 -17
836 49 44
837 49 44
838 49 44
839 -30 -50
840 -30 -50
841 -30 -50
842 46 -16
843 46 -16
844 46 -16
845 46 -16
846 46 -16
847 46 -16
848 5 32
849 5 32
850 5 32
851 5 32
852 5 32
853 -5 -9
854 -5 -9
855 -5 -9
856 46 31
857 46 31
858 46 31
859 -25 43
860 -25 43
861 -25 43
862 -25 43
863 -25 43
864 5 -6
865 5 -6
866 5 -6
867 5 -6
868 5 -6
869 -41 -40
870 -41 -40
871 -41 -40
872 -41 -40
873 27 23
874 27 23
875 27 23
876 -35 -6
877 -35 -6
878 -35 -6
879 -35 -6
880 -35 -6
881 5 -3
882 5 -3
883 5 -3
884 5 -3
885 8 -48
886 8 -48
887 8 -48
888 8 -48
889 8 -48
890 8 -48
891 -46 -13
892 -46 -13
893 -46 -13
894 -46 -13
895 -46 -13
896 27 14
897 27 14
898 27 14
899 27 14
900 28 5
901 28 5
902 28 5
903 -29 -44
904 -29 -44
905 -29 -44
906 -29 -44
907 -29 -44
908 -29 -44
909 -29 -44
910 21 17
911 21 17
912 21 17
913 21 17
914 21 17
915 21 17
916 -16 21
917 -16 21
918 -16 21
919 -16 21
920 41 14
921 41 14
922 41 14
923 28 40
924 28 40
925 28 40
926 28 40
927 28 40
928 7 -24
929 7 -24
930 7 -24
931 7 -24
932 7 -24
933 7 -24
934 27 22
935 27 22
936 27 22
937 -7 15
938 -7 15
939 -7 15
940 -7 15
941 -7 15
942 -7 15
943 -7 15
944 -38 5
945 -38 5
946 -38 5
947 -38 5
948 -38 5
949 -38 5
950 44 43
951 44 43
952 44 43
953 44 43
954 44 43
955 44 43
956 44 43
DEMAND_SECTION
1 0
2 40
3 40
4 1
5 20
6 10
7 2
8 2
9 2
10 40
11 20
12 2
13 2
14 2
15 2
16 1
17 20
18 10
19 2
20 2
21 2
22 2
23 20
24 10
25 2
26 2
27 2
28 2
29 40
30 40
31 10
32 40
33 20
34 10
35 2
36 2
37 2
38 1
39 20
40 10
41 2
42 2
43 2
44 2
45 40
46 40
47 10
48 2
49 2
50 2
51 20
52 10
53 2
54 40
55 20
56 2
57 2
58 1
59 40
60 40
61 10
62 2
63 2
64 2
65 40
66 20
67 2
68 1
69 40
70 20
71 10
72 2
73 2
74 1
75 40
76 2
77 2
78 1
79 20
80 10
81 2
82 2
83 2
84 2
85 40
86 40
87 10
88 2
89 40
90 20
91 2
92 1
93 20
94 10
95 2
96 1
97 40
98 40
99 20
100 40
101 20
102 10
103 2
104 2
105 2
106 40
107 40
108 40
109 40
110 2
111 1
112 40
113 40
114 10
115 40
116 10
117 2
118 40
119 20
120 10
121 2
122 2
123 20
124 10
125 2
126 2
127 2
128 20
129 2
130 2
131 2
132 2
133 40
134 10
135 2
136 2
137 2
138 2
139 40
140 40
141 2
142 2
143 40
144 2
145 2
146 1
147 40
148 20
149 10
150 2
151 2
152 2
153 20
154 10
155 2
156 1
157 20
158 10
159 2
160 40
161 10
162 2
163 2
164 2
165 1
166 40
167 20
168 2
169 2
170 2
171 1
172 40
173 2
174 2
175 2
176 1
177 40
178 20
179 2
180 1
181 40
182 10
183 2
184 1
185 40
186 20
187 10
188 2
189 40
190 20
191 10
192 2
193 2
194 40
195 20
196 2
197 2
198 2
199 40
200 20
201 10
202 2
203 2
204 2
205 20
206 10
207 2
208 2
209 2
210 2
211 1
212 40
213 40
214 2
215 1
216 40
217 20
218 2
219 40
220 20
221 2
222 2
223 1
224 40
225 10
226 2
227 2
228 2
229 2
230 40
231 40
232 2
233 1
234 40
235 20
236 2
237 40
238 2
239 1
240 40
241 20
242 10
243 2
244 2
245 2
246 2
247 1
248 40
249 20
250 2
251 2
252 2
253 2
254 1
255 20
256 10
257 2
258 2
259 2
260 40
261 20
262 10
263 2
264 2
265 2
266 20
267 2
268 2
269 1
270 40
271 20
272 10
273 2
274 2
275 2
276 1
277 40
278 2
279 2
280 40
281 2
282 1
283 40
284 40
285 1
286 40
287 40
288 20
289 2
290 2
291 2
292 40
293 20
294 10
295 2
296 2
297 2
298 2
299 40
300 20
301 2
302 2
303 2
304 1
305 40
306 10
307 2
308 2
309 2
310 2
311 1
312 40
313 40
314 10
315 2
316 2
317 40
318 10
319 2
320 2
321 1
322 40
323 10
324 2
325 2
326 2
327 2
328 1
329 40
330 40
331 20
332 10
333 2
334 2
335 2
336 1
337 40
338 40
339 10
340 2
341 2
342 2
343 2
344 40
345 40
346 1
347 40
348 2
349 2
350 1
351 40
352 40
353 2
354 2
355 2
356 1
357 40
358 20
359 2
360 2
361 40
362 20
363 10
364 2
365 2
366 20
367 10
368 2
369 2
370 1
371 40
372 40
373 10
374 1
375 40
376 40
377 10
378 2
379 2
380 2
381 1
382 20
383 2
384 2
385 2
386 1
387 40
388 40
389 2
390 2
391 2
392 2
393 1
394 40
395 20
396 10
397 2
398 2
399 20
400 2
401 2
402 2
403 2
404 1
405 40
406 2
407 1
408 40
409 20
410 10
411 2
412 1
413 40
414 2
415 2
416 2
417 1
418 20
419 2
420 2
421 2
422 2
423 20
424 10
425 2
426 2
427 2
428 1
429 40
430 40
431 10
432 2
433 1
434 40
435 10
436 2
437 2
438 2
439 2
440 40
441 40
442 10
443 20
444 10
445 2
446 2
447 40
448 2
449 2
450 2
451 2
452 1
453 40
454 10
455 2
456 2
457 40
458 2
459 2
460 2
461 40
462 40
463 2
464 2
465 2
466 1
467 40
468 20
469 2
470 2
471 2
472 2
473 40
474 20
475 1
476 40
477 40
478 2
479 2
480 2
481 2
482 1
483 40
484 40
485 1
486 40
487 20
488 2
489 2
490 40
491 10
492 2
493 2
494 1
495 40
496 20
497 10
498 2
499 2
500 2
501 2
502 1
503 20
504 2
505 2
506 2
507 20
508 2
509 2
510 2
511 2
512 1
513 40
514 2
515 20
516 10
517 2
518 1
519 40
520 40
521 40
522 2
523 2
524 1
525 40
526 40
527 2
528 2
529 2
530 1
531 40
532 20
533 10
534 2
535 2
536 40
537 20
538 10
539 2
540 2
541 2
542 1
543 40
544 40
545 10
546 2
547 1
548 40
549 10
550 2
551 2
552 1
553 40
554 40
555 1
556 40
557 10
558 2
559 2
560 40
561 40
562 10
563 1
564 40
565 10
566 2
567 2
568 2
569 40
570 40
571 2
572 2
573 2
574 2
575 40
576 40
577 10
578 2
579 2
580 2
581 40
582 10
583 2
584 2
585 2
586 40
587 20
588 10
589 2
590 20
591 2
592 2
593 2
594 2
595 40
596 10
597 2
598 1
599 40
600 10
601 2
602 2
603 2
604 2
605 40
606 10
607 2
608 2
609 2
610 1
611 20
612 2
613 2
614 2
615 2
616 40
617 40
618 10
619 2
620 2
621 2
622 2
623 40
624 40
625 2
626 2
627 40
628 2
629 2
630 2
631 1
632 20
633 2
634 2
635 2
636 2
637 20
638 2
639 2
640 2
641 2
642 1
643 20
644 10
645 2
646 2
647 2
648 1
649 40
650 40
651 10
652 2
653 40
654 40
655 2
656 40
657 20
658 10
659 2
660 2
661 2
662 1
663 40
664 20
665 10
666 1
667 40
668 40
669 40
670 1
671 20
672 10
673 40
674 40
675 1
676 20
677 10
678 1
679 40
680 40
681 2
682 2
683 2
684 40
685 40
686 2
687 2
688 2
689 2
690 40
691 40
692 2
693 2
694 1
695 20
696 2
697 2
698 2
699 40
700 40
701 10
702 2
703 1
704 40
705 40
706 10
707 20
708 2
709 2
710 2
711 2
712 40
713 40
714 2
715 2
716 2
717 1
718 20
719 10
720 2
721 2
722 40
723 20
724 10
725 2
726 2
727 2
728 40
729 20
730 10
731 2
732 2
733 40
734 40
735 40
736 10
737 2
738 2
739 40
740 40
741 1
742 40
743 20
744 10
745 1
746 40
747 10
748 2
749 2
750 1
751 40
752 40
753 10
754 2
755 2
756 2
757 40
758 40
759 10
760 2
761 1
762 40
763 40
764 2
765 1
766 40
767 2
768 2
769 2
770 2
771 1
772 40
773 40
774 10
775 2
776 2
777 2
778 40
779 20
780 10
781 2
782 1
783 40
784 20
785 2
786 2
787 1
788 40
789 40
790 10
791 2
792 2
793 2
794 40
795 20
796 2
797 2
798 2
799 2
800 40
801 20
802 10
803 2
804 40
805 2
806 2
807 2
808 1
809 40
810 20
811 10
812 2
813 2
814 2
815 2
816 1
817 40
818 10
819 2
820 2
821 2
822 1
823 40
824 20
825 2
826 2
827 2
828 2
829 1
830 40
831 20
832 2
833 2
834 2
835 1
836 40
837 2
838 1
839 40
840 20
841 2
842 40
843 20
844 10
845 2
846 2
847 1
848 40
849 20
850 10
851 2
852 1
853 40
854 20
855 1
856 40
857 10
858 2
859 40
860 2
861 2
862 2
863 2
864 40
865 20
866 2
867 2
868 2
869 20
870 2
871 2
872 1
873 40
874 40
875 10
876 20
877 2
878 2
879 2
880 2
881 20
882 10
883 2
884 2
885 40
886 10
887 2
888 2
889 2
890 2
891 40
892 10
893 2
894 2
895 1
896 40
897 40
898 10
899 1
900 40
901 20
902 10
903 40
904 40
905 2
906 2
907 2
908 2
909 1
910 40
911 20
912 10
913 2
914 2
915 1
916 40
917 40
918 2
919 1
920 40
921 2
922 2
923 40
924 10
925 2
926 2
927 1
928 20
929 10
930 2
931 2
932 2
933 2
934 40
935 20
936 1
937 40
938 20
939 10
940 2
941 2
942 2
943 1
944 20
945 10
946 2
947 2
948 2
949 2
950 40
951 20
952 10
953 2
954 2
955 2
956 2
DEPOT_SECTION
1
-1
EOF