SDVRP instances/custom_instances/p10_17_split0.sol
955 -9 525 524 112 111 -11 15 10 13 105 106 564 566 567 563 745 -14 12 788 789 791 787 790 792 557 558 555 556 75 77 76 74 -17 380 704 705 703 3 2 1 326 327 323 322 325 -29 28 30 156 157 560 559 -36 35 32 33 37 31 34 357 356 359 358 500 496 497 501 499 495 498 333 335 331 334 -41 38 39 43 926 923 922 925 924 596 594 595 597 817 821 816 818 820 819 -42 40 396 395 397 393 394 950 952 955 954 951 953 949 835 837 836 -45 44 49 46 47 48 385 383 381 384 382 672 848 851 592 149 151 148 -50 52 51 806 803 292 294 291 913 909 910 -67 64 66 65 874 872 873 935 934 295 293 296 297 805 807 804 -80 78 109 110 108 107 430 429 428 431 432 -81 82 83 79 738 740 739 92 93 474 472 473 -84 87 85 258 255 254 257 256 519 518 866 -94 95 193 921 920 919 676 677 675 143 144 145 142 131 128 129 130 127 736 737 104 102 -100 99 167 170 169 168 165 166 900 899 901 -103 101 734 735 772 773 775 776 771 774 668 669 -113 700 698 699 681 682 680 679 678 -146 147 150 936 937 939 942 938 332 330 329 -155 153 152 154 628 629 627 626 630 270 274 275 269 273 272 271 123 122 125 124 126 845 846 844 -158 546 545 544 543 542 70 71 72 68 73 69 945 943 948 947 946 -178 177 435 434 437 622 623 624 625 427 422 425 426 424 423 456 -179 176 282 284 283 57 54 56 55 53 441 -184 185 554 553 552 418 417 931 932 930 927 928 -187 186 203 201 202 689 692 690 691 693 757 758 756 759 760 -196 197 195 194 118 119 121 117 120 617 619 615 618 621 616 620 -204 205 206 210 209 208 207 631 635 632 634 633 830 829 305 306 304 310 864 -211 213 214 212 523 521 522 520 854 853 852 -216 217 215 175 174 171 173 172 868 869 133 136 135 132 134 137 763 764 -228 223 225 226 224 227 656 657 655 468 467 469 470 466 471 -234 235 233 241 246 240 239 245 797 794 793 -242 244 243 801 906 902 908 903 907 905 904 353 355 352 354 351 350 -252 249 248 253 247 251 250 180 402 403 400 183 181 398 399 182 401 462 463 867 865 863 -281 280 279 140 141 139 138 663 662 664 665 -285 286 893 894 890 892 891 728 729 730 879 875 878 877 876 527 526 -290 289 288 287 200 199 198 802 800 799 4 8 6 7 5 796 795 798 -300 299 302 301 298 303 115 116 114 762 761 -307 16 278 712 715 716 711 714 713 533 531 534 532 530 86 464 465 -308 309 929 366 368 367 365 369 454 453 455 452 442 444 443 445 889 887 886 885 888 884 420 421 419 832 831 833 834 -311 315 312 313 314 192 190 191 188 189 506 507 510 511 508 509 -316 317 320 318 319 576 577 575 578 579 574 388 390 391 386 -324 321 375 379 378 377 374 376 276 277 18 20 21 19 726 723 -328 482 484 483 601 603 602 599 600 598 -342 341 336 340 339 338 337 439 440 589 590 -347 346 349 348 751 750 752 754 755 753 856 855 857 -373 372 371 370 459 457 458 58 60 62 63 61 59 860 859 861 -411 410 409 408 407 343 345 344 238 236 237 871 870 -414 412 416 415 413 588 585 586 587 363 360 361 362 364 660 658 661 659 -446 447 449 450 448 451 720 719 717 718 685 686 683 684 671 670 -461 460 725 722 724 721 489 492 490 493 491 -479 477 476 782 784 786 785 783 896 897 898 895 -480 481 478 475 933 96 98 97 914 912 911 -486 487 488 485 841 843 842 612 611 614 613 610 881 880 883 882 -505 503 504 502 229 231 232 230 433 438 436 862 858 940 941 -514 517 515 516 822 823 827 826 513 695 694 814 812 813 815 811 808 810 809 -529 528 406 404 405 944 742 744 743 741 562 561 766 767 769 770 765 746 748 749 747 -536 540 539 541 538 535 537 494 916 918 917 915 -565 768 162 159 160 161 163 164 648 649 651 650 387 392 389 687 688 -569 571 568 572 570 573 548 547 549 550 551 828 512 824 825 697 696 -591 89 90 88 91 220 218 222 221 219 707 709 710 706 708 673 674 -593 667 666 850 849 847 27 25 24 26 23 22 268 266 265 267 702 701 -609 607 606 608 605 604 733 732 840 839 838 -638 637 641 640 636 639 584 582 580 583 581 264 263 262 260 259 261 646 645 643 647 642 644 -731 727 653 654 652 781 780 777 779 778 0 





OBJ=
5695.808
BEST_KNOWN=
0.000